pr/lpsolve-precompiler/example/params/9
V1 = 1000
V2 = 10000

C1 = 2
C2 = 1
C3 = 1

A1 = 1
A2 = 4
A3 = 1
A4 = 2

M = 10000000

-----

